GeneratedTests/Random_6/Random_6_12.tsp
NAME: Random_6_12
TYPE: TSP
DIMENSION: 6
EDGE_WEIGHT_TYPE: EUC_2D
NODE_COORD_SECTION
1 9.619073 8.853294
2 13.043329 13.605278
3 2.889048 5.777546
4 16.320406 4.7331505
5 7.5102334 13.16161
6 5.9162235 9.975881
EOF
