GeneratedTests/Random_6/Random_6_12.txt
NAME: Random_6_12
TYPE: TSP
DIMENSION: 6
EDGE_WEIGHT_TYPE: EUC_2D
NODE_COORD_SECTION
1 7.262526 17.860573
2 3.521628 17.502003
3 14.41964 11.836649
4 7.4938474 8.03291
5 15.419587 6.003535
6 16.624254 15.5980625
EOF
